NAME : random_7
COMMENT : 60 random nodes
TYPE : TSP
DIMENSION : 60
EDGE_WEIGHT_TYPE : EUC_2D
NODE_COORD_SECTION
1 983 36
2 393 642
3 286 95
4 426 869
5 176 839
6 299 535
7 160 601
8 687 701
9 230 987
10 588 764
11 689 335
12 928 168
13 151 281
14 959 45
15 488 596
16 474 979
17 16 868
18 533 524
19 87 427
20 557 443
21 550 104
22 271 616
23 981 711
24 958 213
25 765 145
26 519 671
27 866 550
28 700 928
29 529 827
30 493 315
31 655 363
32 217 62
33 934 794
34 753 775
35 805 236
36 263 447
37 389 822
38 345 341
39 20 945
40 271 60
41 326 955
42 507 591
43 45 861
44 586 249
45 976 245
46 459 11
47 102 900
48 272 724
49 851 618
50 37 915
51 371 955
52 944 479
53 946 191
54 402 205
55 432 86
56 24 413
57 859 721
58 506 859
59 465 591
60 114 61
EOF